NAME : berlin52
TYPE : OP
DIMENSION : 52
COST_LIMIT : 3771
ROUTE_NODES : 35
ROUTE_SCORE : 1897
ROUTE_COST : 3766
NODE_SEQUENCE_SECTION
1
49
32
45
19
41
8
43
12
28
27
26
25
4
6
15
5
24
48
38
37
40
39
36
35
34
44
16
50
20
23
21
31
18
22
-1
DEPOT_SECTION
1
-1
EOF
